[runlim] version:		1.10
[runlim] time limit:		311040000 seconds
[runlim] real time limit:	600 seconds
[runlim] space limit:		14000 MB
[runlim] argv[0]:		python3
[runlim] argv[1]:		-u
[runlim] argv[2]:		mip.py
[runlim] argv[3]:		graph03
[runlim] start:			Tue Jan 20 13:28:28 2026
[runlim] main pid:		32480
Building MIP model...
[runlim] sample:		9.9 time, 10.5 real, 31.5 MB
[runlim] sample:		19.9 time, 20.5 real, 33.5 MB
[runlim] sample:		29.9 time, 30.5 real, 36.5 MB
[runlim] sample:		39.9 time, 40.5 real, 38.9 MB
[runlim] sample:		49.9 time, 50.5 real, 41.5 MB
[runlim] sample:		59.9 time, 60.5 real, 44.6 MB
[runlim] sample:		69.8 time, 70.5 real, 48.1 MB
Build time: 73.29s
Solving MIP (minimizing number of labels)...
Version identifier: 22.1.1.0 | 2022-11-28 | 9160aff4d
CPXPARAM_Read_DataCheck                          1
Legacy callback                                  i
Tried aggregator 2 times.
MIP Presolve eliminated 490231 rows and 85 columns.
MIP Presolve modified 20373 coefficients.
Aggregator did 3910 substitutions.
Reduced MIP has 10327 rows, 3873 columns, and 281290 nonzeros.
Reduced MIP has 3873 binaries, 0 generals, 0 SOSs, and 0 indicators.
Presolve time = 3.38 sec. (5706.63 ticks)
Probing fixed 133 vars, tightened 0 bounds.
Probing changed sense of 13 constraints.
Probing time = 0.02 sec. (9.09 ticks)
Tried aggregator 2 times.
Detecting symmetries...
MIP Presolve eliminated 245 rows and 164 columns.
MIP Presolve modified 1812 coefficients.
Aggregator did 1 substitutions.
Reduced MIP has 10007 rows, 3706 columns, and 266090 nonzeros.
Reduced MIP has 3706 binaries, 0 generals, 0 SOSs, and 0 indicators.
Presolve time = 0.25 sec. (428.53 ticks)
Probing fixed 25 vars, tightened 0 bounds.
Probing changed sense of 2 constraints.
Probing time = 0.02 sec. (9.32 ticks)
Cover probing fixed 1 vars, tightened 0 bounds.
Clique table members: 13835.
MIP emphasis: balance optimality and feasibility.
MIP search method: dynamic search.
Parallel mode: deterministic, using up to 12 threads.
[runlim] sample:		98.3 time, 80.5 real, 370.8 MB
Root relaxation solution time = 6.22 sec. (6166.42 ticks)

        Nodes                                         Cuts/
   Node  Left     Objective  IInf  Best Integer    Best Bound    ItCnt     Gap

*     0+    0                           44.0000        0.0000           100.00%
      0     0       12.0000   881       44.0000       12.0000       13   72.73%

========== NEW INCUMBENT SOLUTION ==========
{1: 44, 2: 282, 3: 142, 4: 380, 5: 86, 6: 324, 7: 792, 8: 554, 9: 142, 10: 380, 11: 666, 12: 428, 13: 58, 14: 296, 15: 114, 16: 352, 17: 114, 18: 352, 19: 736, 20: 498, 21: 30, 22: 268, 23: 86, 24: 324, 25: 708, 26: 470, 27: 100, 28: 338, 29: 694, 30: 456, 31: 142, 32: 380, 33: 44, 34: 282, 35: 142, 36: 380, 37: 86, 38: 324, 39: 792, 40: 554, 41: 16, 42: 254, 43: 86, 44: 324, 45: 750, 46: 512, 47: 764, 48: 526, 49: 30, 50: 268, 51: 128, 52: 366, 53: 666, 54: 428, 55: 44, 56: 282, 57: 722, 58: 484, 59: 652, 60: 414, 61: 86, 62: 324, 63: 16, 64: 254, 65: 750, 66: 512, 67: 708, 68: 470, 69: 778, 70: 540, 71: 666, 72: 428, 73: 666, 74: 428, 75: 722, 76: 484, 77: 44, 78: 282, 79: 792, 80: 554, 81: 694, 82: 456, 83: 30, 84: 268, 85: 16, 86: 254, 87: 792, 88: 554, 89: 736, 90: 498, 91: 16, 92: 254, 93: 778, 94: 540, 95: 142, 96: 380, 97: 30, 98: 268, 99: 764, 100: 526, 101: 16, 102: 254, 103: 128, 104: 366, 105: 86, 106: 324, 107: 100, 108: 338, 109: 666, 110: 428, 111: 764, 112: 526, 113: 58, 114: 296, 115: 750, 116: 512, 117: 156, 118: 394, 119: 764, 120: 526, 121: 128, 122: 366, 123: 16, 124: 254, 125: 750, 126: 512, 127: 72, 128: 310, 129: 792, 130: 554, 131: 750, 132: 512, 133: 72, 134: 310, 135: 666, 136: 428, 137: 156, 138: 394, 139: 722, 140: 484, 141: 114, 142: 352, 143: 750, 144: 512, 145: 30, 146: 268, 147: 58, 148: 296, 149: 764, 150: 526, 151: 44, 152: 282, 153: 792, 154: 554, 155: 86, 156: 324, 157: 16, 158: 254, 159: 100, 160: 338, 161: 72, 162: 310, 163: 16, 164: 254, 165: 128, 166: 366, 167: 792, 168: 554, 169: 652, 170: 414, 171: 680, 172: 442, 173: 44, 174: 282, 175: 792, 176: 554, 177: 764, 178: 526, 179: 736, 180: 498, 181: 666, 182: 428, 183: 694, 184: 456, 185: 708, 186: 470, 187: 708, 188: 470, 189: 778, 190: 540, 191: 792, 192: 554, 193: 72, 194: 310, 195: 44, 196: 282, 197: 128, 198: 366, 199: 764, 200: 526}
Number of labels used: 44
Total time: 83.67 sec
Memory: 322.71 MB
=============================================

========== NEW INCUMBENT SOLUTION ==========
{1: 44, 2: 282, 3: 142, 4: 380, 5: 86, 6: 324, 7: 792, 8: 554, 9: 142, 10: 380, 11: 666, 12: 428, 13: 58, 14: 296, 15: 114, 16: 352, 17: 114, 18: 352, 19: 736, 20: 498, 21: 30, 22: 268, 23: 86, 24: 324, 25: 708, 26: 470, 27: 100, 28: 338, 29: 694, 30: 456, 31: 142, 32: 380, 33: 44, 34: 282, 35: 142, 36: 380, 37: 86, 38: 324, 39: 792, 40: 554, 41: 16, 42: 254, 43: 86, 44: 324, 45: 750, 46: 512, 47: 764, 48: 526, 49: 30, 50: 268, 51: 128, 52: 366, 53: 666, 54: 428, 55: 44, 56: 282, 57: 722, 58: 484, 59: 652, 60: 414, 61: 86, 62: 324, 63: 16, 64: 254, 65: 750, 66: 512, 67: 708, 68: 470, 69: 778, 70: 540, 71: 666, 72: 428, 73: 666, 74: 428, 75: 722, 76: 484, 77: 44, 78: 282, 79: 792, 80: 554, 81: 694, 82: 456, 83: 30, 84: 268, 85: 16, 86: 254, 87: 792, 88: 554, 89: 736, 90: 498, 91: 16, 92: 254, 93: 778, 94: 540, 95: 142, 96: 380, 97: 30, 98: 268, 99: 764, 100: 526, 101: 16, 102: 254, 103: 128, 104: 366, 105: 86, 106: 324, 107: 100, 108: 338, 109: 666, 110: 428, 111: 764, 112: 526, 113: 58, 114: 296, 115: 750, 116: 512, 117: 156, 118: 394, 119: 764, 120: 526, 121: 128, 122: 366, 123: 16, 124: 254, 125: 750, 126: 512, 127: 72, 128: 310, 129: 792, 130: 554, 131: 750, 132: 512, 133: 72, 134: 310, 135: 666, 136: 428, 137: 156, 138: 394, 139: 722, 140: 484, 141: 114, 142: 352, 143: 750, 144: 512, 145: 30, 146: 268, 147: 58, 148: 296, 149: 764, 150: 526, 151: 44, 152: 282, 153: 792, 154: 554, 155: 86, 156: 324, 157: 16, 158: 254, 159: 100, 160: 338, 161: 72, 162: 310, 163: 16, 164: 254, 165: 128, 166: 366, 167: 792, 168: 554, 169: 652, 170: 414, 171: 680, 172: 442, 173: 44, 174: 282, 175: 792, 176: 554, 177: 764, 178: 526, 179: 736, 180: 498, 181: 666, 182: 428, 183: 694, 184: 456, 185: 708, 186: 470, 187: 708, 188: 470, 189: 778, 190: 540, 191: 792, 192: 554, 193: 72, 194: 310, 195: 44, 196: 282, 197: 128, 198: 366, 199: 764, 200: 526}
Number of labels used: 44
Total time: 83.67 sec
Memory: 322.71 MB
=============================================
[runlim] sample:		125.7 time, 90.5 real, 366.6 MB
[runlim] sample:		145.7 time, 100.5 real, 383.0 MB
[runlim] sample:		165.7 time, 110.5 real, 386.7 MB
[runlim] sample:		185.7 time, 120.5 real, 386.7 MB
[runlim] sample:		205.6 time, 130.5 real, 386.7 MB
[runlim] sample:		225.6 time, 140.5 real, 386.7 MB
[runlim] sample:		245.6 time, 150.5 real, 386.7 MB
[runlim] sample:		265.6 time, 160.5 real, 386.7 MB
[runlim] sample:		285.6 time, 170.5 real, 387.0 MB
[runlim] sample:		305.6 time, 180.5 real, 387.0 MB
*     0+    0                           42.0000       12.0000            71.43%

========== NEW INCUMBENT SOLUTION ==========
{1: 694, 2: 456, 3: 142, 4: 380, 5: 142, 6: 380, 7: 792, 8: 554, 9: 142, 10: 380, 11: 666, 12: 428, 13: 58, 14: 296, 15: 114, 16: 352, 17: 114, 18: 352, 19: 58, 20: 296, 21: 30, 22: 268, 23: 86, 24: 324, 25: 708, 26: 470, 27: 100, 28: 338, 29: 694, 30: 456, 31: 142, 32: 380, 33: 44, 34: 282, 35: 142, 36: 380, 37: 86, 38: 324, 39: 16, 40: 254, 41: 16, 42: 254, 43: 86, 44: 324, 45: 58, 46: 296, 47: 764, 48: 526, 49: 30, 50: 268, 51: 128, 52: 366, 53: 666, 54: 428, 55: 44, 56: 282, 57: 722, 58: 484, 59: 652, 60: 414, 61: 86, 62: 324, 63: 16, 64: 254, 65: 750, 66: 512, 67: 708, 68: 470, 69: 30, 70: 268, 71: 666, 72: 428, 73: 142, 74: 380, 75: 722, 76: 484, 77: 44, 78: 282, 79: 16, 80: 254, 81: 764, 82: 526, 83: 30, 84: 268, 85: 792, 86: 554, 87: 792, 88: 554, 89: 694, 90: 456, 91: 16, 92: 254, 93: 30, 94: 268, 95: 142, 96: 380, 97: 30, 98: 268, 99: 44, 100: 282, 101: 16, 102: 254, 103: 128, 104: 366, 105: 86, 106: 324, 107: 100, 108: 338, 109: 666, 110: 428, 111: 764, 112: 526, 113: 58, 114: 296, 115: 58, 116: 296, 117: 156, 118: 394, 119: 764, 120: 526, 121: 694, 122: 456, 123: 16, 124: 254, 125: 750, 126: 512, 127: 72, 128: 310, 129: 792, 130: 554, 131: 750, 132: 512, 133: 72, 134: 310, 135: 666, 136: 428, 137: 156, 138: 394, 139: 722, 140: 484, 141: 114, 142: 352, 143: 750, 144: 512, 145: 30, 146: 268, 147: 58, 148: 296, 149: 764, 150: 526, 151: 44, 152: 282, 153: 792, 154: 554, 155: 86, 156: 324, 157: 16, 158: 254, 159: 100, 160: 338, 161: 72, 162: 310, 163: 16, 164: 254, 165: 128, 166: 366, 167: 792, 168: 554, 169: 652, 170: 414, 171: 680, 172: 442, 173: 44, 174: 282, 175: 792, 176: 554, 177: 764, 178: 526, 179: 736, 180: 498, 181: 666, 182: 428, 183: 694, 184: 456, 185: 694, 186: 456, 187: 792, 188: 554, 189: 30, 190: 268, 191: 16, 192: 254, 193: 72, 194: 310, 195: 44, 196: 282, 197: 128, 198: 366, 199: 30, 200: 268}
Number of labels used: 42
Total time: 181.22 sec
Memory: 388.11 MB
=============================================
      0     0       12.0000  1511       42.0000     Cuts: 284    52584   71.43%

========== NEW INCUMBENT SOLUTION ==========
{1: 694, 2: 456, 3: 142, 4: 380, 5: 142, 6: 380, 7: 792, 8: 554, 9: 142, 10: 380, 11: 666, 12: 428, 13: 58, 14: 296, 15: 114, 16: 352, 17: 114, 18: 352, 19: 58, 20: 296, 21: 30, 22: 268, 23: 86, 24: 324, 25: 708, 26: 470, 27: 100, 28: 338, 29: 694, 30: 456, 31: 142, 32: 380, 33: 44, 34: 282, 35: 142, 36: 380, 37: 86, 38: 324, 39: 16, 40: 254, 41: 16, 42: 254, 43: 86, 44: 324, 45: 58, 46: 296, 47: 764, 48: 526, 49: 30, 50: 268, 51: 128, 52: 366, 53: 666, 54: 428, 55: 44, 56: 282, 57: 722, 58: 484, 59: 652, 60: 414, 61: 86, 62: 324, 63: 16, 64: 254, 65: 750, 66: 512, 67: 708, 68: 470, 69: 30, 70: 268, 71: 666, 72: 428, 73: 142, 74: 380, 75: 722, 76: 484, 77: 44, 78: 282, 79: 16, 80: 254, 81: 764, 82: 526, 83: 30, 84: 268, 85: 792, 86: 554, 87: 792, 88: 554, 89: 694, 90: 456, 91: 16, 92: 254, 93: 30, 94: 268, 95: 142, 96: 380, 97: 30, 98: 268, 99: 44, 100: 282, 101: 16, 102: 254, 103: 128, 104: 366, 105: 86, 106: 324, 107: 100, 108: 338, 109: 666, 110: 428, 111: 764, 112: 526, 113: 58, 114: 296, 115: 58, 116: 296, 117: 156, 118: 394, 119: 764, 120: 526, 121: 694, 122: 456, 123: 16, 124: 254, 125: 750, 126: 512, 127: 72, 128: 310, 129: 792, 130: 554, 131: 750, 132: 512, 133: 72, 134: 310, 135: 666, 136: 428, 137: 156, 138: 394, 139: 722, 140: 484, 141: 114, 142: 352, 143: 750, 144: 512, 145: 30, 146: 268, 147: 58, 148: 296, 149: 764, 150: 526, 151: 44, 152: 282, 153: 792, 154: 554, 155: 86, 156: 324, 157: 16, 158: 254, 159: 100, 160: 338, 161: 72, 162: 310, 163: 16, 164: 254, 165: 128, 166: 366, 167: 792, 168: 554, 169: 652, 170: 414, 171: 680, 172: 442, 173: 44, 174: 282, 175: 792, 176: 554, 177: 764, 178: 526, 179: 736, 180: 498, 181: 666, 182: 428, 183: 694, 184: 456, 185: 694, 186: 456, 187: 792, 188: 554, 189: 30, 190: 268, 191: 16, 192: 254, 193: 72, 194: 310, 195: 44, 196: 282, 197: 128, 198: 366, 199: 30, 200: 268}
Number of labels used: 42
Total time: 181.23 sec
Memory: 388.11 MB
=============================================
[runlim] sample:		325.6 time, 190.5 real, 396.4 MB
[runlim] sample:		345.6 time, 200.5 real, 397.0 MB
[runlim] sample:		365.6 time, 210.5 real, 398.0 MB
[runlim] sample:		385.5 time, 220.5 real, 398.0 MB
[runlim] sample:		405.5 time, 230.5 real, 398.0 MB
[runlim] sample:		425.5 time, 240.5 real, 398.0 MB
[runlim] sample:		445.5 time, 250.5 real, 398.0 MB
[runlim] sample:		465.5 time, 260.5 real, 398.0 MB
[runlim] sample:		485.5 time, 270.5 real, 398.0 MB

========== NEW INCUMBENT SOLUTION ==========
{1: 694, 2: 456, 3: 142, 4: 380, 5: 142, 6: 380, 7: 792, 8: 554, 9: 142, 10: 380, 11: 666, 12: 428, 13: 58, 14: 296, 15: 114, 16: 352, 17: 114, 18: 352, 19: 58, 20: 296, 21: 30, 22: 268, 23: 86, 24: 324, 25: 708, 26: 470, 27: 100, 28: 338, 29: 694, 30: 456, 31: 142, 32: 380, 33: 44, 34: 282, 35: 142, 36: 380, 37: 86, 38: 324, 39: 16, 40: 254, 41: 16, 42: 254, 43: 86, 44: 324, 45: 58, 46: 296, 47: 764, 48: 526, 49: 30, 50: 268, 51: 128, 52: 366, 53: 666, 54: 428, 55: 44, 56: 282, 57: 722, 58: 484, 59: 652, 60: 414, 61: 86, 62: 324, 63: 16, 64: 254, 65: 750, 66: 512, 67: 708, 68: 470, 69: 30, 70: 268, 71: 666, 72: 428, 73: 142, 74: 380, 75: 722, 76: 484, 77: 44, 78: 282, 79: 16, 80: 254, 81: 764, 82: 526, 83: 30, 84: 268, 85: 792, 86: 554, 87: 792, 88: 554, 89: 694, 90: 456, 91: 16, 92: 254, 93: 30, 94: 268, 95: 142, 96: 380, 97: 30, 98: 268, 99: 44, 100: 282, 101: 16, 102: 254, 103: 128, 104: 366, 105: 86, 106: 324, 107: 100, 108: 338, 109: 666, 110: 428, 111: 764, 112: 526, 113: 58, 114: 296, 115: 58, 116: 296, 117: 156, 118: 394, 119: 764, 120: 526, 121: 694, 122: 456, 123: 16, 124: 254, 125: 750, 126: 512, 127: 72, 128: 310, 129: 792, 130: 554, 131: 750, 132: 512, 133: 72, 134: 310, 135: 666, 136: 428, 137: 156, 138: 394, 139: 722, 140: 484, 141: 114, 142: 352, 143: 750, 144: 512, 145: 30, 146: 268, 147: 58, 148: 296, 149: 764, 150: 526, 151: 44, 152: 282, 153: 792, 154: 554, 155: 86, 156: 324, 157: 16, 158: 254, 159: 100, 160: 338, 161: 72, 162: 310, 163: 16, 164: 254, 165: 128, 166: 366, 167: 792, 168: 554, 169: 652, 170: 414, 171: 680, 172: 442, 173: 44, 174: 282, 175: 792, 176: 554, 177: 764, 178: 526, 179: 736, 180: 498, 181: 666, 182: 428, 183: 694, 184: 456, 185: 694, 186: 456, 187: 792, 188: 554, 189: 30, 190: 268, 191: 16, 192: 254, 193: 72, 194: 310, 195: 44, 196: 282, 197: 128, 198: 366, 199: 30, 200: 268}
Number of labels used: 42
Total time: 274.47 sec
Memory: 399.16 MB
=============================================
      0     0       12.0000  1481       42.0000     Cuts: 443   100051   71.43%

========== NEW INCUMBENT SOLUTION ==========
{1: 694, 2: 456, 3: 142, 4: 380, 5: 142, 6: 380, 7: 792, 8: 554, 9: 142, 10: 380, 11: 666, 12: 428, 13: 58, 14: 296, 15: 114, 16: 352, 17: 114, 18: 352, 19: 58, 20: 296, 21: 30, 22: 268, 23: 86, 24: 324, 25: 708, 26: 470, 27: 100, 28: 338, 29: 694, 30: 456, 31: 142, 32: 380, 33: 44, 34: 282, 35: 142, 36: 380, 37: 86, 38: 324, 39: 16, 40: 254, 41: 16, 42: 254, 43: 86, 44: 324, 45: 58, 46: 296, 47: 764, 48: 526, 49: 30, 50: 268, 51: 128, 52: 366, 53: 666, 54: 428, 55: 44, 56: 282, 57: 722, 58: 484, 59: 652, 60: 414, 61: 86, 62: 324, 63: 16, 64: 254, 65: 750, 66: 512, 67: 708, 68: 470, 69: 30, 70: 268, 71: 666, 72: 428, 73: 142, 74: 380, 75: 722, 76: 484, 77: 44, 78: 282, 79: 16, 80: 254, 81: 764, 82: 526, 83: 30, 84: 268, 85: 792, 86: 554, 87: 792, 88: 554, 89: 694, 90: 456, 91: 16, 92: 254, 93: 30, 94: 268, 95: 142, 96: 380, 97: 30, 98: 268, 99: 44, 100: 282, 101: 16, 102: 254, 103: 128, 104: 366, 105: 86, 106: 324, 107: 100, 108: 338, 109: 666, 110: 428, 111: 764, 112: 526, 113: 58, 114: 296, 115: 58, 116: 296, 117: 156, 118: 394, 119: 764, 120: 526, 121: 694, 122: 456, 123: 16, 124: 254, 125: 750, 126: 512, 127: 72, 128: 310, 129: 792, 130: 554, 131: 750, 132: 512, 133: 72, 134: 310, 135: 666, 136: 428, 137: 156, 138: 394, 139: 722, 140: 484, 141: 114, 142: 352, 143: 750, 144: 512, 145: 30, 146: 268, 147: 58, 148: 296, 149: 764, 150: 526, 151: 44, 152: 282, 153: 792, 154: 554, 155: 86, 156: 324, 157: 16, 158: 254, 159: 100, 160: 338, 161: 72, 162: 310, 163: 16, 164: 254, 165: 128, 166: 366, 167: 792, 168: 554, 169: 652, 170: 414, 171: 680, 172: 442, 173: 44, 174: 282, 175: 792, 176: 554, 177: 764, 178: 526, 179: 736, 180: 498, 181: 666, 182: 428, 183: 694, 184: 456, 185: 694, 186: 456, 187: 792, 188: 554, 189: 30, 190: 268, 191: 16, 192: 254, 193: 72, 194: 310, 195: 44, 196: 282, 197: 128, 198: 366, 199: 30, 200: 268}
Number of labels used: 42
Total time: 274.49 sec
Memory: 399.16 MB
=============================================
[runlim] sample:		505.5 time, 280.5 real, 398.0 MB
[runlim] sample:		525.5 time, 290.5 real, 398.0 MB
[runlim] sample:		545.5 time, 300.5 real, 399.4 MB
[runlim] sample:		565.4 time, 310.5 real, 399.4 MB
[runlim] sample:		585.4 time, 320.5 real, 399.4 MB
[runlim] sample:		605.4 time, 330.5 real, 399.4 MB
[runlim] sample:		625.4 time, 340.5 real, 399.4 MB
[runlim] sample:		645.4 time, 350.5 real, 399.4 MB
[runlim] sample:		665.4 time, 360.5 real, 399.4 MB
[runlim] sample:		685.4 time, 370.5 real, 399.4 MB
[runlim] sample:		705.4 time, 380.5 real, 399.4 MB
[runlim] sample:		725.4 time, 390.5 real, 399.5 MB

========== NEW INCUMBENT SOLUTION ==========
{1: 694, 2: 456, 3: 142, 4: 380, 5: 142, 6: 380, 7: 792, 8: 554, 9: 142, 10: 380, 11: 666, 12: 428, 13: 58, 14: 296, 15: 114, 16: 352, 17: 114, 18: 352, 19: 58, 20: 296, 21: 30, 22: 268, 23: 86, 24: 324, 25: 708, 26: 470, 27: 100, 28: 338, 29: 694, 30: 456, 31: 142, 32: 380, 33: 44, 34: 282, 35: 142, 36: 380, 37: 86, 38: 324, 39: 16, 40: 254, 41: 16, 42: 254, 43: 86, 44: 324, 45: 58, 46: 296, 47: 764, 48: 526, 49: 30, 50: 268, 51: 128, 52: 366, 53: 666, 54: 428, 55: 44, 56: 282, 57: 722, 58: 484, 59: 652, 60: 414, 61: 86, 62: 324, 63: 16, 64: 254, 65: 750, 66: 512, 67: 708, 68: 470, 69: 30, 70: 268, 71: 666, 72: 428, 73: 142, 74: 380, 75: 722, 76: 484, 77: 44, 78: 282, 79: 16, 80: 254, 81: 764, 82: 526, 83: 30, 84: 268, 85: 792, 86: 554, 87: 792, 88: 554, 89: 694, 90: 456, 91: 16, 92: 254, 93: 30, 94: 268, 95: 142, 96: 380, 97: 30, 98: 268, 99: 44, 100: 282, 101: 16, 102: 254, 103: 128, 104: 366, 105: 86, 106: 324, 107: 100, 108: 338, 109: 666, 110: 428, 111: 764, 112: 526, 113: 58, 114: 296, 115: 58, 116: 296, 117: 156, 118: 394, 119: 764, 120: 526, 121: 694, 122: 456, 123: 16, 124: 254, 125: 750, 126: 512, 127: 72, 128: 310, 129: 792, 130: 554, 131: 750, 132: 512, 133: 72, 134: 310, 135: 666, 136: 428, 137: 156, 138: 394, 139: 722, 140: 484, 141: 114, 142: 352, 143: 750, 144: 512, 145: 30, 146: 268, 147: 58, 148: 296, 149: 764, 150: 526, 151: 44, 152: 282, 153: 792, 154: 554, 155: 86, 156: 324, 157: 16, 158: 254, 159: 100, 160: 338, 161: 72, 162: 310, 163: 16, 164: 254, 165: 128, 166: 366, 167: 792, 168: 554, 169: 652, 170: 414, 171: 680, 172: 442, 173: 44, 174: 282, 175: 792, 176: 554, 177: 764, 178: 526, 179: 736, 180: 498, 181: 666, 182: 428, 183: 694, 184: 456, 185: 694, 186: 456, 187: 792, 188: 554, 189: 30, 190: 268, 191: 16, 192: 254, 193: 72, 194: 310, 195: 44, 196: 282, 197: 128, 198: 366, 199: 30, 200: 268}
Number of labels used: 42
Total time: 391.73 sec
Memory: 400.76 MB
=============================================
      0     0       12.0636  1529       42.0000     Cuts: 398   195899   71.28%

========== NEW INCUMBENT SOLUTION ==========
{1: 694, 2: 456, 3: 142, 4: 380, 5: 142, 6: 380, 7: 792, 8: 554, 9: 142, 10: 380, 11: 666, 12: 428, 13: 58, 14: 296, 15: 114, 16: 352, 17: 114, 18: 352, 19: 58, 20: 296, 21: 30, 22: 268, 23: 86, 24: 324, 25: 708, 26: 470, 27: 100, 28: 338, 29: 694, 30: 456, 31: 142, 32: 380, 33: 44, 34: 282, 35: 142, 36: 380, 37: 86, 38: 324, 39: 16, 40: 254, 41: 16, 42: 254, 43: 86, 44: 324, 45: 58, 46: 296, 47: 764, 48: 526, 49: 30, 50: 268, 51: 128, 52: 366, 53: 666, 54: 428, 55: 44, 56: 282, 57: 722, 58: 484, 59: 652, 60: 414, 61: 86, 62: 324, 63: 16, 64: 254, 65: 750, 66: 512, 67: 708, 68: 470, 69: 30, 70: 268, 71: 666, 72: 428, 73: 142, 74: 380, 75: 722, 76: 484, 77: 44, 78: 282, 79: 16, 80: 254, 81: 764, 82: 526, 83: 30, 84: 268, 85: 792, 86: 554, 87: 792, 88: 554, 89: 694, 90: 456, 91: 16, 92: 254, 93: 30, 94: 268, 95: 142, 96: 380, 97: 30, 98: 268, 99: 44, 100: 282, 101: 16, 102: 254, 103: 128, 104: 366, 105: 86, 106: 324, 107: 100, 108: 338, 109: 666, 110: 428, 111: 764, 112: 526, 113: 58, 114: 296, 115: 58, 116: 296, 117: 156, 118: 394, 119: 764, 120: 526, 121: 694, 122: 456, 123: 16, 124: 254, 125: 750, 126: 512, 127: 72, 128: 310, 129: 792, 130: 554, 131: 750, 132: 512, 133: 72, 134: 310, 135: 666, 136: 428, 137: 156, 138: 394, 139: 722, 140: 484, 141: 114, 142: 352, 143: 750, 144: 512, 145: 30, 146: 268, 147: 58, 148: 296, 149: 764, 150: 526, 151: 44, 152: 282, 153: 792, 154: 554, 155: 86, 156: 324, 157: 16, 158: 254, 159: 100, 160: 338, 161: 72, 162: 310, 163: 16, 164: 254, 165: 128, 166: 366, 167: 792, 168: 554, 169: 652, 170: 414, 171: 680, 172: 442, 173: 44, 174: 282, 175: 792, 176: 554, 177: 764, 178: 526, 179: 736, 180: 498, 181: 666, 182: 428, 183: 694, 184: 456, 185: 694, 186: 456, 187: 792, 188: 554, 189: 30, 190: 268, 191: 16, 192: 254, 193: 72, 194: 310, 195: 44, 196: 282, 197: 128, 198: 366, 199: 30, 200: 268}
Number of labels used: 42
Total time: 391.75 sec
Memory: 400.77 MB
=============================================
[runlim] sample:		745.3 time, 400.5 real, 401.4 MB
[runlim] sample:		765.3 time, 410.5 real, 401.4 MB
[runlim] sample:		785.3 time, 420.5 real, 401.4 MB
[runlim] sample:		805.3 time, 430.5 real, 401.4 MB
[runlim] sample:		825.3 time, 440.5 real, 401.4 MB
[runlim] sample:		845.3 time, 450.5 real, 401.4 MB

========== NEW INCUMBENT SOLUTION ==========
{1: 694, 2: 456, 3: 142, 4: 380, 5: 142, 6: 380, 7: 792, 8: 554, 9: 142, 10: 380, 11: 666, 12: 428, 13: 58, 14: 296, 15: 114, 16: 352, 17: 114, 18: 352, 19: 58, 20: 296, 21: 30, 22: 268, 23: 86, 24: 324, 25: 708, 26: 470, 27: 100, 28: 338, 29: 694, 30: 456, 31: 142, 32: 380, 33: 44, 34: 282, 35: 142, 36: 380, 37: 86, 38: 324, 39: 16, 40: 254, 41: 16, 42: 254, 43: 86, 44: 324, 45: 58, 46: 296, 47: 764, 48: 526, 49: 30, 50: 268, 51: 128, 52: 366, 53: 666, 54: 428, 55: 44, 56: 282, 57: 722, 58: 484, 59: 652, 60: 414, 61: 86, 62: 324, 63: 16, 64: 254, 65: 750, 66: 512, 67: 708, 68: 470, 69: 30, 70: 268, 71: 666, 72: 428, 73: 142, 74: 380, 75: 722, 76: 484, 77: 44, 78: 282, 79: 16, 80: 254, 81: 764, 82: 526, 83: 30, 84: 268, 85: 792, 86: 554, 87: 792, 88: 554, 89: 694, 90: 456, 91: 16, 92: 254, 93: 30, 94: 268, 95: 142, 96: 380, 97: 30, 98: 268, 99: 44, 100: 282, 101: 16, 102: 254, 103: 128, 104: 366, 105: 86, 106: 324, 107: 100, 108: 338, 109: 666, 110: 428, 111: 764, 112: 526, 113: 58, 114: 296, 115: 58, 116: 296, 117: 156, 118: 394, 119: 764, 120: 526, 121: 694, 122: 456, 123: 16, 124: 254, 125: 750, 126: 512, 127: 72, 128: 310, 129: 792, 130: 554, 131: 750, 132: 512, 133: 72, 134: 310, 135: 666, 136: 428, 137: 156, 138: 394, 139: 722, 140: 484, 141: 114, 142: 352, 143: 750, 144: 512, 145: 30, 146: 268, 147: 58, 148: 296, 149: 764, 150: 526, 151: 44, 152: 282, 153: 792, 154: 554, 155: 86, 156: 324, 157: 16, 158: 254, 159: 100, 160: 338, 161: 72, 162: 310, 163: 16, 164: 254, 165: 128, 166: 366, 167: 792, 168: 554, 169: 652, 170: 414, 171: 680, 172: 442, 173: 44, 174: 282, 175: 792, 176: 554, 177: 764, 178: 526, 179: 736, 180: 498, 181: 666, 182: 428, 183: 694, 184: 456, 185: 694, 186: 456, 187: 792, 188: 554, 189: 30, 190: 268, 191: 16, 192: 254, 193: 72, 194: 310, 195: 44, 196: 282, 197: 128, 198: 366, 199: 30, 200: 268}
Number of labels used: 42
Total time: 451.68 sec
Memory: 402.56 MB
=============================================
[runlim] sample:		865.3 time, 460.5 real, 403.5 MB
[runlim] sample:		885.2 time, 470.5 real, 403.5 MB
[runlim] sample:		905.2 time, 480.5 real, 403.5 MB
[runlim] sample:		925.2 time, 490.5 real, 403.5 MB
[runlim] sample:		945.2 time, 500.5 real, 403.5 MB
[runlim] sample:		965.2 time, 510.5 real, 403.5 MB
[runlim] sample:		985.2 time, 520.5 real, 403.5 MB
[runlim] sample:		1005.2 time, 530.5 real, 403.5 MB
[runlim] sample:		1025.2 time, 540.5 real, 403.5 MB

========== NEW INCUMBENT SOLUTION ==========
{1: 694, 2: 456, 3: 142, 4: 380, 5: 142, 6: 380, 7: 792, 8: 554, 9: 142, 10: 380, 11: 666, 12: 428, 13: 58, 14: 296, 15: 114, 16: 352, 17: 114, 18: 352, 19: 58, 20: 296, 21: 30, 22: 268, 23: 86, 24: 324, 25: 708, 26: 470, 27: 100, 28: 338, 29: 694, 30: 456, 31: 142, 32: 380, 33: 44, 34: 282, 35: 142, 36: 380, 37: 86, 38: 324, 39: 16, 40: 254, 41: 16, 42: 254, 43: 86, 44: 324, 45: 58, 46: 296, 47: 764, 48: 526, 49: 30, 50: 268, 51: 128, 52: 366, 53: 666, 54: 428, 55: 44, 56: 282, 57: 722, 58: 484, 59: 652, 60: 414, 61: 86, 62: 324, 63: 16, 64: 254, 65: 750, 66: 512, 67: 708, 68: 470, 69: 30, 70: 268, 71: 666, 72: 428, 73: 142, 74: 380, 75: 722, 76: 484, 77: 44, 78: 282, 79: 16, 80: 254, 81: 764, 82: 526, 83: 30, 84: 268, 85: 792, 86: 554, 87: 792, 88: 554, 89: 694, 90: 456, 91: 16, 92: 254, 93: 30, 94: 268, 95: 142, 96: 380, 97: 30, 98: 268, 99: 44, 100: 282, 101: 16, 102: 254, 103: 128, 104: 366, 105: 86, 106: 324, 107: 100, 108: 338, 109: 666, 110: 428, 111: 764, 112: 526, 113: 58, 114: 296, 115: 58, 116: 296, 117: 156, 118: 394, 119: 764, 120: 526, 121: 694, 122: 456, 123: 16, 124: 254, 125: 750, 126: 512, 127: 72, 128: 310, 129: 792, 130: 554, 131: 750, 132: 512, 133: 72, 134: 310, 135: 666, 136: 428, 137: 156, 138: 394, 139: 722, 140: 484, 141: 114, 142: 352, 143: 750, 144: 512, 145: 30, 146: 268, 147: 58, 148: 296, 149: 764, 150: 526, 151: 44, 152: 282, 153: 792, 154: 554, 155: 86, 156: 324, 157: 16, 158: 254, 159: 100, 160: 338, 161: 72, 162: 310, 163: 16, 164: 254, 165: 128, 166: 366, 167: 792, 168: 554, 169: 652, 170: 414, 171: 680, 172: 442, 173: 44, 174: 282, 175: 792, 176: 554, 177: 764, 178: 526, 179: 736, 180: 498, 181: 666, 182: 428, 183: 694, 184: 456, 185: 694, 186: 456, 187: 792, 188: 554, 189: 30, 190: 268, 191: 16, 192: 254, 193: 72, 194: 310, 195: 44, 196: 282, 197: 128, 198: 366, 199: 30, 200: 268}
Number of labels used: 42
Total time: 540.38 sec
Memory: 404.65 MB
=============================================
      0     0       12.1043  1565       42.0000     Cuts: 982   314140   71.18%

========== NEW INCUMBENT SOLUTION ==========
{1: 694, 2: 456, 3: 142, 4: 380, 5: 142, 6: 380, 7: 792, 8: 554, 9: 142, 10: 380, 11: 666, 12: 428, 13: 58, 14: 296, 15: 114, 16: 352, 17: 114, 18: 352, 19: 58, 20: 296, 21: 30, 22: 268, 23: 86, 24: 324, 25: 708, 26: 470, 27: 100, 28: 338, 29: 694, 30: 456, 31: 142, 32: 380, 33: 44, 34: 282, 35: 142, 36: 380, 37: 86, 38: 324, 39: 16, 40: 254, 41: 16, 42: 254, 43: 86, 44: 324, 45: 58, 46: 296, 47: 764, 48: 526, 49: 30, 50: 268, 51: 128, 52: 366, 53: 666, 54: 428, 55: 44, 56: 282, 57: 722, 58: 484, 59: 652, 60: 414, 61: 86, 62: 324, 63: 16, 64: 254, 65: 750, 66: 512, 67: 708, 68: 470, 69: 30, 70: 268, 71: 666, 72: 428, 73: 142, 74: 380, 75: 722, 76: 484, 77: 44, 78: 282, 79: 16, 80: 254, 81: 764, 82: 526, 83: 30, 84: 268, 85: 792, 86: 554, 87: 792, 88: 554, 89: 694, 90: 456, 91: 16, 92: 254, 93: 30, 94: 268, 95: 142, 96: 380, 97: 30, 98: 268, 99: 44, 100: 282, 101: 16, 102: 254, 103: 128, 104: 366, 105: 86, 106: 324, 107: 100, 108: 338, 109: 666, 110: 428, 111: 764, 112: 526, 113: 58, 114: 296, 115: 58, 116: 296, 117: 156, 118: 394, 119: 764, 120: 526, 121: 694, 122: 456, 123: 16, 124: 254, 125: 750, 126: 512, 127: 72, 128: 310, 129: 792, 130: 554, 131: 750, 132: 512, 133: 72, 134: 310, 135: 666, 136: 428, 137: 156, 138: 394, 139: 722, 140: 484, 141: 114, 142: 352, 143: 750, 144: 512, 145: 30, 146: 268, 147: 58, 148: 296, 149: 764, 150: 526, 151: 44, 152: 282, 153: 792, 154: 554, 155: 86, 156: 324, 157: 16, 158: 254, 159: 100, 160: 338, 161: 72, 162: 310, 163: 16, 164: 254, 165: 128, 166: 366, 167: 792, 168: 554, 169: 652, 170: 414, 171: 680, 172: 442, 173: 44, 174: 282, 175: 792, 176: 554, 177: 764, 178: 526, 179: 736, 180: 498, 181: 666, 182: 428, 183: 694, 184: 456, 185: 694, 186: 456, 187: 792, 188: 554, 189: 30, 190: 268, 191: 16, 192: 254, 193: 72, 194: 310, 195: 44, 196: 282, 197: 128, 198: 366, 199: 30, 200: 268}
Number of labels used: 42
Total time: 540.40 sec
Memory: 404.65 MB
=============================================
[runlim] sample:		1045.2 time, 550.5 real, 406.7 MB
[runlim] sample:		1065.2 time, 560.5 real, 406.9 MB
[runlim] sample:		1085.1 time, 570.5 real, 406.9 MB
[runlim] sample:		1105.1 time, 580.5 real, 406.9 MB
[runlim] sample:		1125.1 time, 590.5 real, 406.9 MB
[runlim] end:			Tue Jan 20 13:38:28 2026
[runlim] status:		out of time
[runlim] result:		2
[runlim] children:		0
[runlim] real:			600.04 seconds
[runlim] time:			1144.09 seconds
[runlim] space:			406.9 MB
[runlim] samples:		5995
